sat
(:added-eqs                   219246
 :arith-eq-adapter            1676
 :arith-assume-eqs            4
 :arith-bound-propagations-lp 15787
 :arith-conflicts             77
 :arith-diseq                 10665
 :arith-fixed-eqs             9161
 :arith-lower                 16879
 :arith-make-feasible         8585
 :arith-max-columns           743
 :arith-max-rows              313
 :arith-offset-eqs            8053
 :arith-upper                 18806
 :binary-propagations         919145
 :conflicts                   2945
 :decisions                   291268
 :del-clause                  3879
 :elim-unconstrained          2
 :final-checks                3
 :interface-eqs               2
 :max-memory                  30.15
 :memory                      22.19
 :minimized-lits              5441
 :mk-bool-var                 10418
 :mk-clause                   7833
 :mk-clause-binary            10374
 :num-allocs                  37436432
 :num-checks                  1
 :propagations                1177094
 :restarts                    24
 :rlimit-count                10103217
 :time                        5.35
 :total-time                  5.58)
